NAME : ejemplo15
COMMENT : Instancia de ejemplo con 15 nodos
TYPE : TSP
DIMENSION: 15
EDGE_WEIGHT_TYPE : EUC_2D
NODE_COORD_SECTION
  1 100 100
  2 200 80
  3 300 100
  4 380 150
  5 400 250
  6 380 350
  7 300 400
  8 200 420
  9 100 400
  10 50 300
  11 50 200
  12 150 250
  13 250 280
  14 300 220
  15 200 180
EOF
